0 2089
1 2089
2 2089
3 1952
4 1952
5 1920
6 1920
7 1914
8 1897
9 1827
10 1753
11 1751
12 1678
13 1678
14 1678
15 1595
16 1595
17 1556
18 1556
19 1556
20 1514
21 1514
22 1514
23 1514
24 1514
25 1495
26 1495
27 1486
28 1453
29 1453
30 1445
31 1404
32 1361
33 1361
34 1361
35 1361
36 1361
37 1361
38 1361
39 1361
40 1361
41 1361
42 1361
43 1361
44 1361
45 1361
46 1361
47 1361
48 1346
49 1346
50 1312
51 1312
52 1312
53 1312
54 1312
55 1312
56 1312
57 1312
58 1312
59 1312
60 1312
61 1312
62 1312
63 1312
64 1304
65 1296
66 1296
67 1277
68 1277
69 1277
70 1269
71 1268
72 1253
73 1253
74 1253
75 1253
76 1246
77 1246
78 1246
79 1132
80 1132
81 1132
82 1132
83 1132
84 1132
85 1132
86 1132
87 1132
88 1132
89 1132
90 1132
91 1132
92 1132
93 1132
94 1132
95 1132
96 1132
97 1132
98 1132
99 1132
100 1117
101 1117
102 1117
103 1117
104 1117
105 1117
106 1117
107 1117
108 1117
109 1117
110 1116
111 1116
112 1116
113 1116
114 1116
115 1113
116 1113
117 1099
118 1099
119 1099
120 1099
121 1099
122 1094
123 1094
124 1094
125 1048
126 1048
127 1048
128 1041
129 1041
130 1041
131 1041
132 1041
133 1041
134 1041
135 1041
136 1041
137 1041
138 1041
139 1041
140 1041
141 1032
142 1032
143 1032
144 1022
145 1022
146 1022
147 1022
148 1022
149 1022
150 1022
151 1022
152 1022
153 1022
154 1022
155 1022
156 1022
157 1022
158 1008
159 1008
160 1008
161 1008
162 1008
163 1003
164 1003
165 1003
166 1003
167 1003
168 1003
169 1003
170 1003
171 1003
172 999
173 999
174 999
175 988
176 988
177 984
178 984
179 984
180 984
181 984
182 984
183 984
184 984
185 978
186 975
187 975
188 975
189 975
190 975
191 975
192 970
193 955
194 955
195 955
196 955
197 955
198 955
199 955
200 943
201 943
202 943
203 943
204 943
205 943
206 943
207 943
208 943
209 943
210 943
211 943
212 943
213 943
214 943
215 943
216 943
217 943
218 934
219 934
220 934
221 934
222 934
223 934
224 934
225 934
226 934
227 924
228 924
229 924
230 924
231 924
232 924
233 924
234 924
235 924
236 924
237 924
238 924
239 924
240 924
241 924
242 924
243 924
244 924
245 924
246 924
247 924
248 924
249 924
250 924
251 924
252 924
253 924
254 921
255 921
256 921
257 921
258 921
259 921
260 921
261 921
262 921
263 921
264 921
265 921
266 921
267 908
268 908
269 908
270 908
271 908
272 908
273 908
274 908
275 908
276 908
277 908
278 908
279 908
280 908
281 908
282 908
283 908
284 908
285 908
286 908
287 908
288 908
289 908
290 908
291 908
292 904
293 904
294 904
295 904
296 904
297 904
298 904
299 892
300 892
301 892
302 892
303 892
304 892
305 892
306 892
307 892
308 892
309 892
310 892
311 892
312 892
313 892
314 892
315 892
316 892
317 892
318 892
319 892
320 892
321 892
322 892
323 892
324 892
325 892
326 889
327 889
328 889
329 889
330 889
331 889
332 889
333 889
334 889
335 889
336 889
337 889
338 889
339 889
340 884
341 884
342 884
343 884
344 884
345 884
346 884
347 884
348 883
349 883
350 883
351 883
352 883
353 883
354 883
355 878
356 878
357 878
358 878
359 878
360 878
361 878
362 878
363 878
364 878
365 878
366 878
367 878
368 878
369 878
370 878
371 878
372 878
373 878
374 878
375 878
376 878
377 878
378 878
379 878
380 878
381 878
382 878
383 878
384 878
385 878
386 878
387 878
388 878
389 878
390 878
391 878
392 878
393 878
394 878
395 878
396 878
397 878
398 878
399 878
400 878
401 878
402 878
403 878
404 878
405 878
406 878
407 878
408 878
409 878
410 878
411 878
412 878
413 878
414 878
415 878
416 878
417 878
418 878
419 878
420 878
421 878
422 878
423 878
424 878
425 878
426 878
427 878
428 878
429 878
430 878
431 878
432 878
433 878
434 878
435 878
436 876
437 876
438 876
439 876
440 876
441 876
442 876
443 876
444 876
445 876
446 876
447 876
448 876
449 876
450 876
451 876
452 876
453 876
454 876
455 876
456 876
457 876
458 876
459 876
460 876
461 876
462 876
463 876
464 876
465 876
466 876
467 876
468 876
469 876
470 876
471 876
472 876
473 876
474 876
475 876
476 876
477 876
478 876
479 876
480 876
481 876
482 876
483 876
484 876
485 876
486 876
487 876
488 876
489 876
490 876
491 876
492 876
493 876
494 876
495 876
496 876
497 876
498 876
499 876
500 876
501 876
502 876
503 876
504 876
505 876
506 876
507 876
508 876
509 876
510 876
511 876
512 876
513 876
514 876
515 876
516 876
517 876
518 876
519 876
520 876
521 876
522 876
523 876
524 876
525 876
526 876
527 876
528 876
529 876
530 876
531 876
532 876
533 876
534 876
535 876
536 876
537 876
538 876
539 876
540 876
541 876
542 876
543 876
544 876
545 876
546 876
547 876
548 876
549 876
550 876
551 876
552 876
553 876
554 876
555 876
556 876
557 876
558 876
559 876
560 876
561 876
562 876
563 873
564 873
565 873
566 873
567 873
568 868
569 868
570 868
571 868
572 868
573 868
574 868
575 868
576 868
577 868
578 868
579 868
580 868
581 868
582 868
583 868
584 868
585 868
586 868
587 868
588 868
589 868
590 868
591 868
592 868
593 868
594 868
595 868
596 868
597 868
598 868
599 868
600 868
601 868
602 868
603 868
604 868
605 868
606 868
607 868
608 868
609 868
610 868
611 868
612 868
613 868
614 868
615 868
616 868
617 868
618 868
619 868
620 868
621 868
622 868
623 868
624 868
625 868
626 868
627 868
628 868
629 868
630 868
631 868
632 868
633 868
634 868
635 868
636 868
637 868
638 868
639 868
640 868
641 868
642 868
643 861
644 861
645 861
646 861
647 861
648 861
649 861
650 861
651 861
652 861
653 861
654 861
655 861
656 861
657 861
658 861
659 861
660 861
661 861
662 861
663 861
664 861
665 861
666 861
667 861
668 861
669 861
670 861
671 861
672 861
673 861
674 861
675 861
676 861
677 861
678 861
679 861
680 861
681 861
682 861
683 861
684 861
685 861
686 861
687 861
688 861
689 861
690 861
691 861
692 861
693 861
694 861
695 861
696 861
697 861
698 861
699 861
700 861
701 861
702 861
703 861
704 861
705 861
706 858
707 858
708 855
709 855
710 855
711 855
712 855
713 855
714 855
715 841
716 841
717 841
718 841
719 841
720 841
721 841
722 841
723 841
724 841
725 841
726 841
727 841
728 841
729 841
730 841
731 841
732 841
733 841
734 841
735 837
736 837
737 837
738 837
739 837
740 837
741 837
742 837
743 837
744 837
745 837
746 837
747 837
748 837
749 837
750 837
751 837
752 837
753 837
754 837
755 837
756 837
757 837
758 837
759 837
760 837
761 837
762 837
763 837
764 837
765 835
766 835
767 835
768 835
769 835
770 835
771 835
772 835
773 835
774 835
775 835
776 835
777 835
778 835
779 835
780 835
781 835
782 835
783 835
784 835
785 835
786 835
787 835
788 835
789 835
790 835
791 835
792 835
793 835
794 835
795 835
796 831
797 831
798 831
799 831
800 831
801 831
802 831
803 831
804 831
805 829
806 829
807 829
808 829
809 828
810 828
811 828
812 828
813 828
814 828
815 828
816 828
817 828
818 828
819 828
820 826
821 826
822 826
823 826
824 826
825 826
826 826
827 826
828 826
829 826
830 826
831 826
832 826
833 826
834 826
835 826
836 826
837 826
838 826
839 822
840 822
841 822
842 822
843 822
844 822
845 822
846 822
847 822
848 822
849 822
850 822
851 822
852 822
853 822
854 822
855 822
856 822
857 822
858 822
859 822
860 822
861 822
862 822
863 822
864 822
865 822
866 822
867 822
868 822
869 822
870 822
871 822
872 822
873 822
874 822
875 822
876 822
877 822
878 822
879 822
880 822
881 822
882 822
883 822
884 822
885 817
886 817
887 817
888 817
889 817
890 817
891 817
892 817
893 817
894 817
895 817
896 817
897 817
898 817
899 817
900 817
901 817
902 817
903 817
904 817
905 817
906 817
907 817
908 817
909 817
910 817
911 817
912 817
913 817
914 817
915 817
916 817
917 817
918 817
919 817
920 817
921 817
922 817
923 817
924 817
925 817
926 817
927 817
928 817
929 817
930 817
931 817
932 817
933 817
934 817
935 817
936 817
937 817
938 817
939 817
940 817
941 817
942 817
943 817
944 817
945 817
946 817
947 817
948 817
949 817
950 817
951 817
952 817
953 817
954 817
955 817
956 817
957 815
958 815
959 815
960 815
961 815
962 815
963 815
964 815
965 815
966 815
967 815
968 815
969 815
970 815
971 815
972 815
973 815
974 815
975 815
976 815
977 815
978 815
979 815
980 815
981 815
982 815
983 815
984 815
985 815
986 815
987 815
988 815
989 815
990 815
991 815
992 815
993 815
994 815
995 815
996 815
997 815
998 815
999 815
Best: [[31,17,2,13],
       [28,25],
       [22,32,20,18,14,8,27],
       [15,24,29,19,16,11,26,6,21],
       [7,4,3,5,12,9,10,23,30]], fitness: 815
